80 3160
1 2 37
1 3 165
1 4 173
1 5 45
1 6 140
1 7 151
1 8 130
1 9 53
1 10 145
1 11 174
1 12 131
1 13 169
1 14 7
1 15 119
1 16 65
1 17 177
1 18 173
1 19 189
1 20 163
1 21 18
1 22 18
1 23 116
1 24 102
1 25 204
1 26 144
1 27 134
1 28 62
1 29 27
1 30 46
1 31 173
1 32 64
1 33 62
1 34 11
1 35 15
1 36 151
1 37 228
1 38 13
1 39 178
1 40 161
1 41 55
1 42 156
1 43 113
1 44 186
1 45 91
1 46 78
1 47 185
1 48 104
1 49 75
1 50 95
1 51 237
1 52 172
1 53 165
1 54 203
1 55 185
1 56 39
1 57 137
1 58 161
1 59 120
1 60 175
1 61 167
1 62 164
1 63 22
1 64 168
1 65 153
1 66 182
1 67 119
1 68 69
1 69 105
1 70 218
1 71 154
1 72 206
1 73 91
1 74 19
1 75 158
1 76 49
1 77 221
1 78 52
1 79 44
1 80 189
2 3 34
2 4 235
2 5 207
2 6 43
2 7 28
2 8 188
2 9 204
2 10 179
2 11 169
2 12 184
2 13 16
2 14 39
2 15 33
2 16 9
2 17 11
2 18 220
2 19 4
2 20 98
2 21 156
2 22 127
2 23 10
2 24 127
2 25 79
2 26 107
2 27 145
2 28 58
2 29 9
2 30 45
2 31 71
2 32 102
2 33 176
2 34 55
2 35 108
2 36 80
2 37 147
2 38 173
2 39 159
2 40 108
2 41 151
2 42 11
2 43 29
2 44 44
2 45 157
2 46 19
2 47 204
2 48 179
2 49 213
2 50 55
2 51 124
2 52 52
2 53 151
2 54 189
2 55 115
2 56 134
2 57 39
2 58 98
2 59 74
2 60 30
2 61 172
2 62 83
2 63 226
2 64 175
2 65 206
2 66 141
2 67 135
2 68 143
2 69 221
2 70 217
2 71 218
2 72 147
2 73 150
2 74 163
2 75 70
2 76 132
2 77 204
2 78 210
2 79 22
2 80 194
3 4 219
3 5 169
3 6 204
3 7 221
3 8 105
3 9 179
3 10 160
3 11 14
3 12 184
3 13 217
3 14 82
3 15 81
3 16 117
3 17 151
3 18 73
3 19 181
3 20 225
3 21 94
3 22 68
3 23 86
3 24 56
3 25 91
3 26 38
3 27 125
3 28 144
3 29 32
3 30 31
3 31 66
3 32 121
3 33 150
3 34 124
3 35 113
3 36 234
3 37 42
3 38 127
3 39 210
3 40 72
3 41 69
3 42 102
3 43 212
3 44 137
3 45 2
3 46 7
3 47 102
3 48 91
3 49 49
3 50 131
3 51 227
3 52 140
3 53 115
3 54 150
3 55 234
3 56 0
3 57 209
3 58 104
3 59 145
3 60 19
3 61 189
3 62 5
3 63 189
3 64 134
3 65 5
3 66 4
3 67 207
3 68 105
3 69 107
3 70 65
3 71 89
3 72 68
3 73 75
3 74 99
3 75 65
3 76 233
3 77 43
3 78 232
3 79 107
3 80 165
4 5 14
4 6 15
4 7 55
4 8 89
4 9 47
4 10 138
4 11 19
4 12 91
4 13 66
4 14 224
4 15 173
4 16 25
4 17 131
4 18 232
4 19 36
4 20 231
4 21 49
4 22 160
4 23 143
4 24 214
4 25 5
4 26 47
4 27 33
4 28 175
4 29 175
4 30 50
4 31 62
4 32 50
4 33 182
4 34 199
4 35 52
4 36 149
4 37 36
4 38 88
4 39 139
4 40 138
4 41 159
4 42 187
4 43 45
4 44 29
4 45 37
4 46 156
4 47 196
4 48 233
4 49 6
4 50 123
4 51 151
4 52 169
4 53 56
4 54 24
4 55 232
4 56 48
4 57 9
4 58 23
4 59 44
4 60 109
4 61 194
4 62 30
4 63 174
4 64 37
4 65 219
4 66 231
4 67 172
4 68 7
4 69 62
4 70 52
4 71 108
4 72 223
4 73 216
4 74 133
4 75 159
4 76 30
4 77 176
4 78 116
4 79 115
4 80 227
5 6 186
5 7 225
5 8 107
5 9 162
5 10 54
5 11 143
5 12 72
5 13 233
5 14 54
5 15 140
5 16 199
5 17 109
5 18 19
5 19 232
5 20 24
5 21 26
5 22 102
5 23 85
5 24 51
5 25 6
5 26 32
5 27 6
5 28 94
5 29 98
5 30 7
5 31 223
5 32 158
5 33 41
5 34 136
5 35 172
5 36 39
5 37 119
5 38 210
5 39 18
5 40 152
5 41 36
5 42 28
5 43 52
5 44 56
5 45 55
5 46 173
5 47 216
5 48 84
5 49 40
5 50 58
5 51 57
5 52 81
5 53 191
5 54 29
5 55 30
5 56 211
5 57 95
5 58 144
5 59 122
5 60 71
5 61 214
5 62 199
5 63 219
5 64 170
5 65 130
5 66 206
5 67 185
5 68 83
5 69 196
5 70 1
5 71 175
5 72 64
5 73 40
5 74 184
5 75 20
5 76 168
5 77 2
5 78 199
5 79 77
5 80 94
6 7 11
6 8 172
6 9 101
6 10 50
6 11 199
6 12 66
6 13 9
6 14 113
6 15 20
6 16 106
6 17 28
6 18 114
6 19 65
6 20 165
6 21 80
6 22 72
6 23 221
6 24 196
6 25 189
6 26 185
6 27 81
6 28 19
6 29 119
6 30 170
6 31 120
6 32 64
6 33 16
6 34 65
6 35 63
6 36 8
6 37 15
6 38 120
6 39 83
6 40 81
6 41 148
6 42 219
6 43 222
6 44 96
6 45 152
6 46 151
6 47 25
6 48 111
6 49 229
6 50 134
6 51 97
6 52 211
6 53 146
6 54 93
6 55 108
6 56 17
6 57 160
6 58 6
6 59 208
6 60 91
6 61 59
6 62 140
6 63 14
6 64 51
6 65 2
6 66 189
6 67 59
6 68 210
6 69 149
6 70 1
6 71 203
6 72 175
6 73 18
6 74 179
6 75 113
6 76 79
6 77 68
6 78 181
6 79 63
6 80 136
7 8 12
7 9 210
7 10 123
7 11 143
7 12 209
7 13 148
7 14 64
7 15 185
7 16 186
7 17 30
7 18 170
7 19 191
7 20 32
7 21 205
7 22 106
7 23 16
7 24 109
7 25 78
7 26 223
7 27 177
7 28 34
7 29 141
7 30 209
7 31 214
7 32 46
7 33 82
7 34 138
7 35 221
7 36 14
7 37 204
7 38 46
7 39 56
7 40 12
7 41 101
7 42 105
7 43 86
7 44 51
7 45 115
7 46 10
7 47 237
7 48 179
7 49 14
7 50 111
7 51 196
7 52 70
7 53 49
7 54 127
7 55 104
7 56 175
7 57 72
7 58 112
7 59 35
7 60 179
7 61 139
7 62 11
7 63 139
7 64 53
7 65 147
7 66 215
7 67 27
7 68 113
7 69 146
7 70 119
7 71 166
7 72 44
7 73 187
7 74 118
7 75 231
7 76 230
7 77 123
7 78 63
7 79 194
7 80 41
8 9 43
8 10 3
8 11 99
8 12 206
8 13 185
8 14 100
8 15 115
8 16 64
8 17 39
8 18 138
8 19 68
8 20 50
8 21 173
8 22 168
8 23 123
8 24 70
8 25 51
8 26 228
8 27 25
8 28 170
8 29 30
8 30 120
8 31 10
8 32 162
8 33 145
8 34 15
8 35 127
8 36 70
8 37 6
8 38 75
8 39 107
8 40 20
8 41 129
8 42 232
8 43 94
8 44 204
8 45 65
8 46 181
8 47 64
8 48 118
8 49 197
8 50 44
8 51 171
8 52 225
8 53 223
8 54 6
8 55 130
8 56 202
8 57 145
8 58 68
8 59 109
8 60 80
8 61 14
8 62 139
8 63 161
8 64 103
8 65 33
8 66 145
8 67 208
8 68 43
8 69 228
8 70 62
8 71 1
8 72 55
8 73 42
8 74 41
8 75 216
8 76 75
8 77 63
8 78 107
8 79 167
8 80 156
9 10 96
9 11 204
9 12 201
9 13 121
9 14 8
9 15 163
9 16 99
9 17 166
9 18 38
9 19 148
9 20 68
9 21 14
9 22 77
9 23 222
9 24 16
9 25 33
9 26 44
9 27 231
9 28 136
9 29 16
9 30 203
9 31 4
9 32 209
9 33 210
9 34 92
9 35 11
9 36 102
9 37 221
9 38 36
9 39 83
9 40 213
9 41 48
9 42 13
9 43 68
9 44 19
9 45 26
9 46 64
9 47 211
9 48 117
9 49 126
9 50 154
9 51 107
9 52 34
9 53 160
9 54 110
9 55 50
9 56 153
9 57 4
9 58 58
9 59 102
9 60 207
9 61 225
9 62 145
9 63 154
9 64 42
9 65 121
9 66 16
9 67 186
9 68 64
9 69 26
9 70 28
9 71 183
9 72 234
9 73 114
9 74 122
9 75 60
9 76 15
9 77 214
9 78 142
9 79 108
9 80 23
10 11 146
10 12 159
10 13 217
10 14 141
10 15 33
10 16 77
10 17 116
10 18 187
10 19 120
10 20 58
10 21 168
10 22 161
10 23 117
10 24 185
10 25 54
10 26 198
10 27 169
10 28 162
10 29 33
10 30 149
10 31 86
10 32 144
10 33 39
10 34 168
10 35 221
10 36 119
10 37 40
10 38 164
10 39 64
10 40 69
10 41 73
10 42 23
10 43 99
10 44 40
10 45 169
10 46 193
10 47 48
10 48 210
10 49 62
10 50 90
10 51 209
10 52 83
10 53 108
10 54 236
10 55 155
10 56 147
10 57 100
10 58 211
10 59 31
10 60 179
10 61 61
10 62 43
10 63 49
10 64 31
10 65 54
10 66 111
10 67 188
10 68 225
10 69 128
10 70 217
10 71 35
10 72 162
10 73 109
10 74 87
10 75 191
10 76 15
10 77 83
10 78 83
10 79 13
10 80 239
11 12 187
11 13 147
11 14 161
11 15 37
11 16 46
11 17 49
11 18 229
11 19 148
11 20 64
11 21 235
11 22 126
11 23 185
11 24 181
11 25 43
11 26 159
11 27 15
11 28 29
11 29 183
11 30 214
11 31 100
11 32 235
11 33 193
11 34 78
11 35 28
11 36 108
11 37 142
11 38 151
11 39 95
11 40 102
11 41 172
11 42 64
11 43 26
11 44 187
11 45 212
11 46 83
11 47 57
11 48 98
11 49 217
11 50 22
11 51 172
11 52 87
11 53 142
11 54 176
11 55 14
11 56 0
11 57 192
11 58 130
11 59 135
11 60 177
11 61 50
11 62 182
11 63 90
11 64 156
11 65 228
11 66 77
11 67 179
11 68 44
11 69 216
11 70 34
11 71 225
11 72 24
11 73 178
11 74 3
11 75 235
11 76 227
11 77 188
11 78 239
11 79 205
11 80 239
12 13 210
12 14 213
12 15 16
12 16 62
12 17 29
12 18 195
12 19 66
12 20 13
12 21 66
12 22 126
12 23 193
12 24 56
12 25 45
12 26 59
12 27 166
12 28 18
12 29 154
12 30 176
12 31 224
12 32 65
12 33 109
12 34 225
12 35 156
12 36 36
12 37 119
12 38 99
12 39 203
12 40 111
12 41 66
12 42 129
12 43 6
12 44 106
12 45 164
12 46 195
12 47 44
12 48 146
12 49 97
12 50 54
12 51 231
12 52 117
12 53 234
12 54 59
12 55 218
12 56 60
12 57 3
12 58 11
12 59 63
12 60 17
12 61 130
12 62 169
12 63 17
12 64 207
12 65 115
12 66 81
12 67 150
12 68 27
12 69 19
12 70 118
12 71 152
12 72 185
12 73 39
12 74 163
12 75 138
12 76 98
12 77 111
12 78 227
12 79 178
12 80 88
13 14 27
13 15 228
13 16 121
13 17 29
13 18 201
13 19 154
13 20 188
13 21 67
13 22 179
13 23 98
13 24 215
13 25 214
13 26 200
13 27 85
13 28 102
13 29 231
13 30 22
13 31 234
13 32 96
13 33 83
13 34 106
13 35 110
13 36 166
13 37 51
13 38 131
13 39 54
13 40 236
13 41 29
13 42 144
13 43 142
13 44 176
13 45 154
13 46 143
13 47 137
13 48 54
13 49 84
13 50 127
13 51 114
13 52 103
13 53 153
13 54 183
13 55 93
13 56 208
13 57 235
13 58 232
13 59 51
13 60 19
13 61 59
13 62 29
13 63 228
13 64 102
13 65 225
13 66 191
13 67 138
13 68 152
13 69 124
13 70 41
13 71 21
13 72 106
13 73 239
13 74 159
13 75 120
13 76 123
13 77 233
13 78 219
13 79 101
13 80 200
14 15 57
14 16 184
14 17 197
14 18 111
14 19 236
14 20 227
14 21 115
14 22 118
14 23 136
14 24 168
14 25 8
14 26 31
14 27 165
14 28 187
14 29 18
14 30 129
14 31 230
14 32 155
14 33 37
14 34 96
14 35 62
14 36 116
14 37 228
14 38 120
14 39 181
14 40 221
14 41 228
14 42 40
14 43 59
14 44 65
14 45 104
14 46 24
14 47 90
14 48 123
14 49 48
14 50 53
14 51 229
14 52 40
14 53 60
14 54 145
14 55 62
14 56 124
14 57 104
14 58 63
14 59 49
14 60 30
14 61 230
14 62 60
14 63 224
14 64 151
14 65 47
14 66 155
14 67 144
14 68 109
14 69 150
14 70 108
14 71 11
14 72 103
14 73 184
14 74 143
14 75 7
14 76 58
14 77 174
14 78 37
14 79 25
14 80 30
15 16 76
15 17 178
15 18 24
15 19 32
15 20 151
15 21 77
15 22 61
15 23 120
15 24 79
15 25 161
15 26 5
15 27 219
15 28 222
15 29 157
15 30 111
15 31 151
15 32 144
15 33 227
15 34 83
15 35 23
15 36 121
15 37 124
15 38 76
15 39 96
15 40 5
15 41 175
15 42 17
15 43 15
15 44 166
15 45 206
15 46 157
15 47 195
15 48 75
15 49 198
15 50 62
15 51 104
15 52 48
15 53 198
15 54 28
15 55 224
15 56 158
15 57 40
15 58 174
15 59 192
15 60 173
15 61 164
15 62 106
15 63 200
15 64 14
15 65 140
15 66 237
15 67 125
15 68 1
15 69 110
15 70 75
15 71 165
15 72 136
15 73 14
15 74 92
15 75 144
15 76 170
15 77 61
15 78 163
15 79 117
15 80 235
16 17 20
16 18 145
16 19 102
16 20 37
16 21 216
16 22 229
16 23 77
16 24 135
16 25 173
16 26 75
16 27 212
16 28 146
16 29 41
16 30 6
16 31 190
16 32 191
16 33 202
16 34 133
16 35 153
16 36 115
16 37 64
16 38 77
16 39 197
16 40 218
16 41 30
16 42 30
16 43 22
16 44 114
16 45 9
16 46 140
16 47 41
16 48 189
16 49 152
16 50 31
16 51 7
16 52 42
16 53 171
16 54 61
16 55 113
16 56 66
16 57 143
16 58 202
16 59 68
16 60 166
16 61 63
16 62 13
16 63 50
16 64 24
16 65 17
16 66 163
16 67 138
16 68 11
16 69 71
16 70 85
16 71 13
16 72 111
16 73 28
16 74 17
16 75 115
16 76 167
16 77 116
16 78 218
16 79 151
16 80 94
17 18 33
17 19 55
17 20 202
17 21 229
17 22 163
17 23 166
17 24 95
17 25 76
17 26 164
17 27 39
17 28 148
17 29 12
17 30 177
17 31 200
17 32 19
17 33 38
17 34 237
17 35 239
17 36 99
17 37 233
17 38 207
17 39 122
17 40 177
17 41 126
17 42 148
17 43 204
17 44 133
17 45 235
17 46 27
17 47 154
17 48 8
17 49 134
17 50 117
17 51 124
17 52 160
17 53 100
17 54 34
17 55 221
17 56 106
17 57 54
17 58 67
17 59 192
17 60 103
17 61 135
17 62 45
17 63 213
17 64 94
17 65 153
17 66 91
17 67 105
17 68 221
17 69 5
17 70 239
17 71 220
17 72 229
17 73 156
17 74 137
17 75 75
17 76 94
17 77 25
17 78 139
17 79 123
17 80 60
18 19 121
18 20 174
18 21 218
18 22 166
18 23 163
18 24 111
18 25 68
18 26 142
18 27 1
18 28 60
18 29 129
18 30 116
18 31 80
18 32 53
18 33 130
18 34 103
18 35 227
18 36 86
18 37 104
18 38 39
18 39 74
18 40 63
18 41 104
18 42 221
18 43 209
18 44 195
18 45 158
18 46 197
18 47 202
18 48 25
18 49 231
18 50 218
18 51 55
18 52 206
18 53 143
18 54 193
18 55 27
18 56 210
18 57 100
18 58 21
18 59 64
18 60 146
18 61 152
18 62 176
18 63 170
18 64 59
18 65 212
18 66 153
18 67 174
18 68 4
18 69 165
18 70 192
18 71 69
18 72 86
18 73 61
18 74 35
18 75 184
18 76 46
18 77 73
18 78 120
18 79 230
18 80 68
19 20 109
19 21 124
19 22 117
19 23 179
19 24 84
19 25 18
19 26 133
19 27 151
19 28 195
19 29 186
19 30 198
19 31 33
19 32 160
19 33 8
19 34 226
19 35 77
19 36 149
19 37 44
19 38 77
19 39 139
19 40 129
19 41 2
19 42 145
19 43 38
19 44 64
19 45 148
19 46 150
19 47 41
19 48 190
19 49 40
19 50 224
19 51 18
19 52 23
19 53 125
19 54 101
19 55 95
19 56 176
19 57 77
19 58 76
19 59 159
19 60 186
19 61 98
19 62 127
19 63 4
19 64 42
19 65 42
19 66 132
19 67 113
19 68 31
19 69 212
19 70 55
19 71 38
19 72 169
19 73 180
19 74 20
19 75 6
19 76 233
19 77 118
19 78 80
19 79 76
19 80 119
20 21 205
20 22 164
20 23 92
20 24 22
20 25 142
20 26 41
20 27 127
20 28 146
20 29 47
20 30 120
20 31 152
20 32 145
20 33 228
20 34 206
20 35 225
20 36 79
20 37 143
20 38 124
20 39 143
20 40 95
20 41 209
20 42 139
20 43 105
20 44 42
20 45 36
20 46 104
20 47 50
20 48 204
20 49 119
20 50 233
20 51 32
20 52 162
20 53 173
20 54 24
20 55 107
20 56 67
20 57 176
20 58 227
20 59 120
20 60 32
20 61 17
20 62 70
20 63 206
20 64 170
20 65 37
20 66 168
20 67 157
20 68 88
20 69 141
20 70 157
20 71 191
20 72 97
20 73 42
20 74 181
20 75 7
20 76 198
20 77 66
20 78 9
20 79 44
20 80 25
21 22 148
21 23 201
21 24 79
21 25 48
21 26 37
21 27 105
21 28 226
21 29 113
21 30 112
21 31 145
21 32 36
21 33 7
21 34 107
21 35 113
21 36 228
21 37 54
21 38 96
21 39 228
21 40 2
21 41 131
21 42 199
21 43 105
21 44 234
21 45 1
21 46 187
21 47 63
21 48 175
21 49 99
21 50 94
21 51 48
21 52 203
21 53 229
21 54 126
21 55 137
21 56 27
21 57 226
21 58 14
21 59 163
21 60 210
21 61 230
21 62 72
21 63 8
21 64 186
21 65 229
21 66 30
21 67 64
21 68 138
21 69 144
21 70 152
21 71 210
21 72 220
21 73 15
21 74 203
21 75 19
21 76 37
21 77 44
21 78 92
21 79 88
21 80 27
22 23 67
22 24 137
22 25 222
22 26 9
22 27 142
22 28 39
22 29 76
22 30 105
22 31 207
22 32 54
22 33 73
22 34 114
22 35 238
22 36 136
22 37 231
22 38 17
22 39 163
22 40 83
22 41 12
22 42 166
22 43 131
22 44 44
22 45 90
22 46 38
22 47 138
22 48 77
22 49 30
22 50 230
22 51 87
22 52 190
22 53 204
22 54 13
22 55 145
22 56 40
22 57 89
22 58 208
22 59 123
22 60 48
22 61 80
22 62 80
22 63 106
22 64 75
22 65 19
22 66 28
22 67 230
22 68 98
22 69 205
22 70 92
22 71 80
22 72 221
22 73 40
22 74 30
22 75 219
22 76 172
22 77 114
22 78 83
22 79 233
22 80 221
23 24 55
23 25 120
23 26 189
23 27 103
23 28 230
23 29 239
23 30 107
23 31 169
23 32 28
23 33 76
23 34 161
23 35 112
23 36 5
23 37 98
23 38 60
23 39 72
23 40 158
23 41 102
23 42 41
23 43 25
23 44 213
23 45 234
23 46 102
23 47 186
23 48 50
23 49 156
23 50 46
23 51 157
23 52 209
23 53 155
23 54 200
23 55 187
23 56 116
23 57 135
23 58 227
23 59 189
23 60 109
23 61 173
23 62 89
23 63 101
23 64 165
23 65 206
23 66 75
23 67 143
23 68 107
23 69 23
23 70 195
23 71 60
23 72 90
23 73 204
23 74 181
23 75 163
23 76 119
23 77 65
23 78 163
23 79 40
23 80 235
24 25 127
24 26 115
24 27 217
24 28 147
24 29 140
24 30 201
24 31 51
24 32 87
24 33 34
24 34 233
24 35 53
24 36 231
24 37 172
24 38 238
24 39 226
24 40 140
24 41 110
24 42 55
24 43 225
24 44 227
24 45 141
24 46 214
24 47 25
24 48 26
24 49 178
24 50 26
24 51 101
24 52 193
24 53 193
24 54 16
24 55 222
24 56 147
24 57 111
24 58 165
24 59 98
24 60 109
24 61 157
24 62 161
24 63 195
24 64 80
24 65 111
24 66 143
24 67 7
24 68 120
24 69 160
24 70 141
24 71 114
24 72 156
24 73 51
24 74 154
24 75 77
24 76 142
24 77 219
24 78 44
24 79 150
24 80 0
25 26 102
25 27 175
25 28 28
25 29 132
25 30 206
25 31 64
25 32 19
25 33 154
25 34 126
25 35 95
25 36 169
25 37 188
25 38 211
25 39 28
25 40 85
25 41 74
25 42 181
25 43 151
25 44 210
25 45 56
25 46 139
25 47 177
25 48 50
25 49 163
25 50 80
25 51 50
25 52 81
25 53 44
25 54 191
25 55 148
25 56 32
25 57 89
25 58 165
25 59 20
25 60 215
25 61 32
25 62 171
25 63 70
25 64 212
25 65 224
25 66 79
25 67 29
25 68 45
25 69 130
25 70 133
25 71 145
25 72 115
25 73 135
25 74 191
25 75 81
25 76 132
25 77 185
25 78 80
25 79 160
25 80 154
26 27 155
26 28 72
26 29 230
26 30 80
26 31 11
26 32 46
26 33 140
26 34 40
26 35 134
26 36 159
26 37 92
26 38 119
26 39 129
26 40 144
26 41 92
26 42 99
26 43 1
26 44 30
26 45 26
26 46 232
26 47 221
26 48 229
26 49 83
26 50 208
26 51 231
26 52 76
26 53 202
26 54 56
26 55 154
26 56 19
26 57 178
26 58 72
26 59 157
26 60 227
26 61 116
26 62 157
26 63 167
26 64 17
26 65 178
26 66 84
26 67 233
26 68 171
26 69 26
26 70 113
26 71 9
26 72 210
26 73 94
26 74 106
26 75 67
26 76 155
26 77 96
26 78 163
26 79 128
26 80 92
27 28 5
27 29 40
27 30 5
27 31 236
27 32 22
27 33 22
27 34 142
27 35 117
27 36 52
27 37 109
27 38 145
27 39 148
27 40 57
27 41 45
27 42 74
27 43 115
27 44 228
27 45 83
27 46 232
27 47 228
27 48 84
27 49 36
27 50 188
27 51 51
27 52 163
27 53 146
27 54 141
27 55 192
27 56 10
27 57 108
27 58 48
27 59 204
27 60 207
27 61 17
27 62 233
27 63 38
27 64 93
27 65 111
27 66 46
27 67 17
27 68 228
27 69 168
27 70 2
27 71 90
27 72 60
27 73 132
27 74 8
27 75 138
27 76 12
27 77 47
27 78 90
27 79 33
27 80 60
28 29 50
28 30 46
28 31 116
28 32 232
28 33 213
28 34 216
28 35 191
28 36 179
28 37 61
28 38 137
28 39 106
28 40 53
28 41 131
28 42 200
28 43 87
28 44 25
28 45 67
28 46 185
28 47 232
28 48 49
28 49 2
28 50 150
28 51 80
28 52 63
28 53 217
28 54 175
28 55 43
28 56 23
28 57 104
28 58 45
28 59 2
28 60 20
28 61 127
28 62 80
28 63 106
28 64 57
28 65 201
28 66 98
28 67 44
28 68 56
28 69 177
28 70 113
28 71 86
28 72 108
28 73 6
28 74 19
28 75 154
28 76 204
28 77 234
28 78 222
28 79 145
28 80 81
29 30 9
29 31 223
29 32 149
29 33 225
29 34 161
29 35 20
29 36 187
29 37 184
29 38 107
29 39 43
29 40 205
29 41 0
29 42 86
29 43 46
29 44 132
29 45 99
29 46 115
29 47 154
29 48 207
29 49 40
29 50 180
29 51 236
29 52 178
29 53 228
29 54 62
29 55 49
29 56 134
29 57 158
29 58 4
29 59 15
29 60 201
29 61 13
29 62 234
29 63 131
29 64 201
29 65 228
29 66 144
29 67 50
29 68 133
29 69 22
29 70 75
29 71 70
29 72 52
29 73 87
29 74 154
29 75 121
29 76 112
29 77 90
29 78 184
29 79 135
29 80 233
30 31 1
30 32 218
30 33 76
30 34 12
30 35 42
30 36 71
30 37 185
30 38 142
30 39 77
30 40 99
30 41 112
30 42 41
30 43 134
30 44 231
30 45 173
30 46 172
30 47 179
30 48 135
30 49 220
30 50 46
30 51 98
30 52 67
30 53 165
30 54 171
30 55 189
30 56 95
30 57 70
30 58 28
30 59 75
30 60 16
30 61 162
30 62 192
30 63 180
30 64 34
30 65 160
30 66 45
30 67 127
30 68 128
30 69 130
30 70 69
30 71 116
30 72 18
30 73 11
30 74 180
30 75 154
30 76 34
30 77 239
30 78 50
30 79 109
30 80 74
31 32 206
31 33 90
31 34 121
31 35 27
31 36 73
31 37 72
31 38 168
31 39 140
31 40 62
31 41 132
31 42 149
31 43 138
31 44 38
31 45 158
31 46 48
31 47 169
31 48 39
31 49 81
31 50 120
31 51 183
31 52 38
31 53 175
31 54 69
31 55 218
31 56 84
31 57 111
31 58 146
31 59 232
31 60 59
31 61 10
31 62 36
31 63 143
31 64 151
31 65 164
31 66 5
31 67 13
31 68 25
31 69 182
31 70 234
31 71 7
31 72 123
31 73 72
31 74 51
31 75 193
31 76 37
31 77 190
31 78 174
31 79 175
31 80 57
32 33 132
32 34 106
32 35 37
32 36 178
32 37 129
32 38 115
32 39 147
32 40 77
32 41 100
32 42 90
32 43 55
32 44 18
32 45 83
32 46 120
32 47 182
32 48 178
32 49 90
32 50 238
32 51 174
32 52 151
32 53 27
32 54 204
32 55 162
32 56 18
32 57 154
32 58 129
32 59 57
32 60 17
32 61 28
32 62 233
32 63 11
32 64 23
32 65 172
32 66 109
32 67 83
32 68 206
32 69 41
32 70 14
32 71 231
32 72 83
32 73 170
32 74 62
32 75 126
32 76 45
32 77 111
32 78 77
32 79 104
32 80 46
33 34 199
33 35 53
33 36 65
33 37 128
33 38 221
33 39 145
33 40 123
33 41 159
33 42 137
33 43 85
33 44 13
33 45 105
33 46 125
33 47 160
33 48 110
33 49 184
33 50 34
33 51 10
33 52 19
33 53 188
33 54 111
33 55 56
33 56 131
33 57 7
33 58 218
33 59 74
33 60 205
33 61 72
33 62 109
33 63 40
33 64 174
33 65 134
33 66 54
33 67 107
33 68 110
33 69 43
33 70 105
33 71 81
33 72 73
33 73 198
33 74 137
33 75 220
33 76 212
33 77 190
33 78 45
33 79 113
33 80 3
34 35 11
34 36 237
34 37 50
34 38 90
34 39 81
34 40 239
34 41 166
34 42 13
34 43 81
34 44 52
34 45 79
34 46 22
34 47 76
34 48 61
34 49 52
34 50 185
34 51 140
34 52 97
34 53 73
34 54 35
34 55 132
34 56 195
34 57 3
34 58 172
34 59 124
34 60 125
34 61 119
34 62 177
34 63 101
34 64 78
34 65 64
34 66 221
34 67 95
34 68 201
34 69 15
34 70 202
34 71 218
34 72 82
34 73 94
34 74 212
34 75 26
34 76 89
34 77 104
34 78 75
34 79 78
34 80 230
35 36 229
35 37 171
35 38 145
35 39 106
35 40 83
35 41 35
35 42 156
35 43 160
35 44 87
35 45 155
35 46 10
35 47 150
35 48 232
35 49 88
35 50 59
35 51 154
35 52 207
35 53 239
35 54 100
35 55 8
35 56 69
35 57 85
35 58 21
35 59 157
35 60 26
35 61 103
35 62 122
35 63 38
35 64 204
35 65 138
35 66 119
35 67 22
35 68 120
35 69 207
35 70 190
35 71 63
35 72 191
35 73 204
35 74 80
35 75 190
35 76 52
35 77 116
35 78 34
35 79 115
35 80 122
36 37 196
36 38 147
36 39 209
36 40 114
36 41 160
36 42 215
36 43 112
36 44 68
36 45 66
36 46 128
36 47 67
36 48 147
36 49 210
36 50 116
36 51 210
36 52 228
36 53 93
36 54 158
36 55 87
36 56 6
36 57 87
36 58 68
36 59 25
36 60 90
36 61 142
36 62 138
36 63 27
36 64 51
36 65 211
36 66 187
36 67 13
36 68 20
36 69 60
36 70 105
36 71 121
36 72 231
36 73 96
36 74 223
36 75 170
36 76 146
36 77 77
36 78 70
36 79 164
36 80 217
37 38 107
37 39 237
37 40 81
37 41 160
37 42 190
37 43 230
37 44 9
37 45 29
37 46 29
37 47 16
37 48 193
37 49 54
37 50 186
37 51 103
37 52 145
37 53 191
37 54 140
37 55 174
37 56 238
37 57 90
37 58 154
37 59 53
37 60 51
37 61 5
37 62 184
37 63 30
37 64 224
37 65 177
37 66 23
37 67 116
37 68 202
37 69 217
37 70 194
37 71 105
37 72 68
37 73 36
37 74 57
37 75 236
37 76 212
37 77 73
37 78 128
37 79 35
37 80 70
38 39 217
38 40 108
38 41 64
38 42 101
38 43 225
38 44 176
38 45 109
38 46 0
38 47 51
38 48 161
38 49 67
38 50 101
38 51 233
38 52 181
38 53 159
38 54 221
38 55 189
38 56 119
38 57 28
38 58 37
38 59 235
38 60 71
38 61 34
38 62 169
38 63 84
38 64 230
38 65 153
38 66 34
38 67 151
38 68 131
38 69 25
38 70 33
38 71 107
38 72 182
38 73 205
38 74 112
38 75 172
38 76 93
38 77 102
38 78 20
38 79 132
38 80 76
39 40 99
39 41 118
39 42 163
39 43 114
39 44 205
39 45 59
39 46 115
39 47 157
39 48 204
39 49 79
39 50 98
39 51 203
39 52 137
39 53 143
39 54 192
39 55 155
39 56 15
39 57 148
39 58 95
39 59 50
39 60 113
39 61 49
39 62 124
39 63 115
39 64 209
39 65 151
39 66 84
39 67 60
39 68 39
39 69 50
39 70 113
39 71 103
39 72 29
39 73 220
39 74 128
39 75 30
39 76 202
39 77 203
39 78 182
39 79 89
39 80 141
40 41 65
40 42 27
40 43 56
40 44 152
40 45 57
40 46 195
40 47 115
40 48 186
40 49 189
40 50 99
40 51 165
40 52 49
40 53 106
40 54 208
40 55 16
40 56 95
40 57 188
40 58 147
40 59 209
40 60 236
40 61 64
40 62 133
40 63 28
40 64 64
40 65 165
40 66 193
40 67 73
40 68 71
40 69 228
40 70 195
40 71 32
40 72 208
40 73 148
40 74 177
40 75 212
40 76 9
40 77 62
40 78 194
40 79 3
40 80 63
41 42 58
41 43 153
41 44 110
41 45 19
41 46 57
41 47 191
41 48 205
41 49 17
41 50 213
41 51 127
41 52 126
41 53 115
41 54 146
41 55 12
41 56 231
41 57 136
41 58 5
41 59 169
41 60 191
41 61 231
41 62 152
41 63 90
41 64 129
41 65 42
41 66 96
41 67 229
41 68 132
41 69 12
41 70 113
41 71 138
41 72 209
41 73 180
41 74 35
41 75 11
41 76 110
41 77 155
41 78 17
41 79 227
41 80 91
42 43 87
42 44 32
42 45 154
42 46 116
42 47 85
42 48 172
42 49 222
42 50 187
42 51 155
42 52 123
42 53 12
42 54 21
42 55 7
42 56 176
42 57 19
42 58 160
42 59 51
42 60 234
42 61 45
42 62 155
42 63 72
42 64 99
42 65 55
42 66 36
42 67 190
42 68 67
42 69 18
42 70 91
42 71 2
42 72 166
42 73 229
42 74 19
42 75 119
42 76 180
42 77 151
42 78 142
42 79 206
42 80 197
43 44 105
43 45 92
43 46 97
43 47 77
43 48 149
43 49 212
43 50 17
43 51 3
43 52 18
43 53 154
43 54 49
43 55 232
43 56 78
43 57 22
43 58 50
43 59 17
43 60 115
43 61 162
43 62 64
43 63 84
43 64 170
43 65 5
43 66 62
43 67 90
43 68 116
43 69 76
43 70 26
43 71 163
43 72 162
43 73 223
43 74 76
43 75 170
43 76 129
43 77 233
43 78 228
43 79 110
43 80 192
44 45 214
44 46 166
44 47 127
44 48 147
44 49 176
44 50 164
44 51 235
44 52 8
44 53 191
44 54 165
44 55 219
44 56 205
44 57 184
44 58 123
44 59 167
44 60 30
44 61 29
44 62 5
44 63 226
44 64 92
44 65 68
44 66 193
44 67 56
44 68 218
44 69 106
44 70 25
44 71 93
44 72 236
44 73 28
44 74 214
44 75 124
44 76 3
44 77 159
44 78 52
44 79 47
44 80 192
45 46 232
45 47 39
45 48 72
45 49 26
45 50 238
45 51 49
45 52 182
45 53 108
45 54 73
45 55 53
45 56 16
45 57 233
45 58 155
45 59 118
45 60 38
45 61 71
45 62 185
45 63 28
45 64 231
45 65 200
45 66 126
45 67 183
45 68 175
45 69 44
45 70 111
45 71 0
45 72 139
45 73 214
45 74 8
45 75 119
45 76 142
45 77 116
45 78 67
45 79 193
45 80 226
46 47 87
46 48 43
46 49 169
46 50 176
46 51 33
46 52 91
46 53 176
46 54 103
46 55 11
46 56 146
46 57 214
46 58 30
46 59 64
46 60 116
46 61 127
46 62 231
46 63 31
46 64 119
46 65 36
46 66 40
46 67 69
46 68 103
46 69 195
46 70 110
46 71 44
46 72 29
46 73 225
46 74 12
46 75 12
46 76 178
46 77 94
46 78 164
46 79 55
46 80 135
47 48 171
47 49 211
47 50 172
47 51 118
47 52 177
47 53 168
47 54 213
47 55 31
47 56 82
47 57 145
47 58 105
47 59 221
47 60 63
47 61 117
47 62 15
47 63 139
47 64 89
47 65 111
47 66 216
47 67 229
47 68 99
47 69 39
47 70 61
47 71 139
47 72 102
47 73 156
47 74 60
47 75 104
47 76 179
47 77 33
47 78 76
47 79 99
47 80 25
48 49 195
48 50 231
48 51 126
48 52 204
48 53 63
48 54 89
48 55 82
48 56 163
48 57 183
48 58 168
48 59 195
48 60 73
48 61 132
48 62 167
48 63 138
48 64 165
48 65 138
48 66 118
48 67 90
48 68 219
48 69 75
48 70 26
48 71 187
48 72 33
48 73 153
48 74 25
48 75 116
48 76 234
48 77 116
48 78 133
48 79 68
48 80 212
49 50 159
49 51 99
49 52 54
49 53 8
49 54 13
49 55 22
49 56 50
49 57 158
49 58 22
49 59 168
49 60 82
49 61 147
49 62 113
49 63 43
49 64 164
49 65 55
49 66 213
49 67 69
49 68 207
49 69 49
49 70 58
49 71 140
49 72 162
49 73 142
49 74 29
49 75 236
49 76 147
49 77 179
49 78 0
49 79 117
49 80 9
50 51 96
50 52 19
50 53 159
50 54 217
50 55 196
50 56 200
50 57 54
50 58 84
50 59 51
50 60 107
50 61 36
50 62 194
50 63 238
50 64 112
50 65 202
50 66 228
50 67 11
50 68 137
50 69 33
50 70 147
50 71 187
50 72 99
50 73 120
50 74 203
50 75 130
50 76 233
50 77 172
50 78 35
50 79 201
50 80 231
51 52 40
51 53 73
51 54 23
51 55 105
51 56 38
51 57 206
51 58 185
51 59 116
51 60 104
51 61 72
51 62 120
51 63 74
51 64 203
51 65 218
51 66 214
51 67 220
51 68 54
51 69 110
51 70 171
51 71 22
51 72 130
51 73 2
51 74 224
51 75 125
51 76 234
51 77 199
51 78 20
51 79 200
51 80 234
52 53 153
52 54 63
52 55 50
52 56 7
52 57 85
52 58 0
52 59 93
52 60 175
52 61 37
52 62 152
52 63 105
52 64 71
52 65 159
52 66 67
52 67 115
52 68 191
52 69 226
52 70 165
52 71 19
52 72 137
52 73 226
52 74 155
52 75 124
52 76 124
52 77 34
52 78 119
52 79 94
52 80 113
53 54 120
53 55 103
53 56 94
53 57 126
53 58 27
53 59 196
53 60 197
53 61 108
53 62 216
53 63 128
53 64 143
53 65 110
53 66 179
53 67 180
53 68 82
53 69 112
53 70 133
53 71 107
53 72 23
53 73 231
53 74 45
53 75 17
53 76 148
53 77 191
53 78 99
53 79 124
53 80 21
54 55 238
54 56 112
54 57 129
54 58 168
54 59 80
54 60 147
54 61 113
54 62 153
54 63 15
54 64 4
54 65 211
54 66 40
54 67 189
54 68 144
54 69 190
54 70 83
54 71 124
54 72 30
54 73 177
54 74 44
54 75 187
54 76 98
54 77 112
54 78 24
54 79 54
54 80 114
55 56 77
55 57 2
55 58 14
55 59 213
55 60 89
55 61 234
55 62 216
55 63 47
55 64 202
55 65 41
55 66 179
55 67 175
55 68 79
55 69 128
55 70 188
55 71 97
55 72 188
55 73 173
55 74 103
55 75 65
55 76 78
55 77 119
55 78 82
55 79 193
55 80 2
56 57 127
56 58 29
56 59 124
56 60 128
56 61 115
56 62 150
56 63 61
56 64 220
56 65 86
56 66 198
56 67 161
56 68 168
56 69 231
56 70 129
56 71 66
56 72 98
56 73 59
56 74 84
56 75 77
56 76 108
56 77 208
56 78 202
56 79 229
56 80 98
57 58 150
57 59 234
57 60 64
57 61 196
57 62 173
57 63 146
57 64 74
57 65 98
57 66 104
57 67 163
57 68 70
57 69 160
57 70 191
57 71 172
57 72 139
57 73 34
57 74 131
57 75 77
57 76 179
57 77 214
57 78 206
57 79 145
57 80 4
58 59 155
58 60 109
58 61 58
58 62 206
58 63 79
58 64 103
58 65 185
58 66 47
58 67 65
58 68 210
58 69 0
58 70 22
58 71 233
58 72 182
58 73 183
58 74 141
58 75 208
58 76 173
58 77 210
58 78 4
58 79 5
58 80 29
59 60 91
59 61 100
59 62 83
59 63 125
59 64 195
59 65 208
59 66 174
59 67 81
59 68 107
59 69 117
59 70 32
59 71 44
59 72 117
59 73 4
59 74 217
59 75 136
59 76 49
59 77 140
59 78 9
59 79 238
59 80 230
60 61 60
60 62 38
60 63 178
60 64 8
60 65 211
60 66 168
60 67 218
60 68 135
60 69 50
60 70 134
60 71 28
60 72 177
60 73 85
60 74 71
60 75 206
60 76 163
60 77 165
60 78 56
60 79 227
60 80 198
61 62 212
61 63 3
61 64 40
61 65 188
61 66 190
61 67 140
61 68 38
61 69 69
61 70 104
61 71 199
61 72 163
61 73 121
61 74 38
61 75 197
61 76 47
61 77 200
61 78 121
61 79 144
61 80 94
62 63 164
62 64 22
62 65 80
62 66 56
62 67 223
62 68 143
62 69 75
62 70 138
62 71 216
62 72 41
62 73 87
62 74 148
62 75 209
62 76 49
62 77 184
62 78 111
62 79 7
62 80 222
63 64 14
63 65 82
63 66 225
63 67 197
63 68 228
63 69 107
63 70 128
63 71 158
63 72 146
63 73 8
63 74 220
63 75 155
63 76 145
63 77 76
63 78 131
63 79 43
63 80 43
64 65 135
64 66 3
64 67 200
64 68 194
64 69 135
64 70 129
64 71 158
64 72 49
64 73 35
64 74 152
64 75 201
64 76 219
64 77 150
64 78 170
64 79 26
64 80 42
65 66 42
65 67 99
65 68 197
65 69 177
65 70 196
65 71 34
65 72 59
65 73 181
65 74 205
65 75 23
65 76 18
65 77 21
65 78 109
65 79 165
65 80 52
66 67 148
66 68 132
66 69 124
66 70 147
66 71 90
66 72 230
66 73 71
66 74 213
66 75 210
66 76 207
66 77 238
66 78 103
66 79 45
66 80 98
67 68 161
67 69 119
67 70 214
67 71 38
67 72 140
67 73 1
67 74 6
67 75 189
67 76 210
67 77 150
67 78 18
67 79 47
67 80 238
68 69 218
68 70 47
68 71 197
68 72 121
68 73 21
68 74 71
68 75 14
68 76 162
68 77 118
68 78 126
68 79 172
68 80 43
69 70 115
69 71 26
69 72 9
69 73 41
69 74 237
69 75 1
69 76 171
69 77 6
69 78 139
69 79 80
69 80 140
70 71 89
70 72 191
70 73 3
70 74 176
70 75 12
70 76 64
70 77 90
70 78 26
70 79 96
70 80 47
71 72 225
71 73 185
71 74 190
71 75 89
71 76 91
71 77 173
71 78 212
71 79 210
71 80 30
72 73 54
72 74 21
72 75 139
72 76 167
72 77 104
72 78 13
72 79 45
72 80 238
73 74 138
73 75 122
73 76 147
73 77 76
73 78 68
73 79 175
73 80 157
74 75 23
74 76 197
74 77 101
74 78 10
74 79 184
74 80 66
75 76 67
75 77 129
75 78 130
75 79 177
75 80 182
76 77 169
76 78 92
76 79 43
76 80 84
77 78 78
77 79 127
77 80 83
78 79 217
78 80 114
79 80 138
